(set-logic QF_LIA)
(declare-fun x0 () Int)
(declare-fun x1 () Int)
(declare-fun x2 () Int)
(declare-fun x3 () Int)
(declare-fun x4 () Int)
(declare-fun x5 () Int)
(declare-fun x6 () Int)
(declare-fun x7 () Int)
(declare-fun x8 () Int)
(declare-fun x9 () Int)
(declare-fun A0 () Bool)
(declare-fun A1 () Bool)
(declare-fun A2 () Bool)
(declare-fun A3 () Bool)
(declare-fun A4 () Bool)
(declare-fun A5 () Bool)
(declare-fun A6 () Bool)
(declare-fun A7 () Bool)
(declare-fun A8 () Bool)
(declare-fun A9 () Bool)
(assert (let ((.def_0 (* 1 x6))) (let ((.def_1 (* (- 1) x0))) (let ((.def_2 (+ .def_1 .def_0))) (let ((.def_3 (< .def_2 1))) (let ((.def_4 (not .def_3))) (let ((.def_5 (not A8))) (let ((.def_6 (and .def_5 .def_4))) (let ((.def_7 (* (- 1) x7))) (let ((.def_8 (* 1 x5))) (let ((.def_9 (+ .def_8 .def_7))) (let ((.def_10 (< .def_9 1))) (let ((.def_11 (not A4))) (let ((.def_12 (or .def_11 .def_10))) (let ((.def_13 (not .def_12))) (let ((.def_14 (and .def_13 .def_6))) (let ((.def_15 (+ .def_0 .def_1))) (let ((.def_16 (< .def_15 (- 1)))) (let ((.def_17 (* 1 x2))) (let ((.def_18 (< .def_17 (- 1)))) (let ((.def_19 (not .def_18))) (let ((.def_20 (and .def_19 .def_16))) (let ((.def_21 (not .def_20))) (let ((.def_22 (* (- 1) x9))) (let ((.def_23 (< .def_22 1))) (let ((.def_24 (not A5))) (let ((.def_25 (and .def_24 .def_23))) (let ((.def_26 (or .def_25 .def_21))) (let ((.def_27 (= .def_26 .def_14))) (let ((.def_28 (not A6))) (let ((.def_29 (* 1 x7))) (let ((.def_30 (+ .def_29 .def_1))) (let ((.def_31 (< .def_30 (- 1)))) (let ((.def_32 (not .def_31))) (let ((.def_33 (and .def_32 .def_28))) (let ((.def_34 (* (- 1) x2))) (let ((.def_35 (< .def_34 (- 1)))) (let ((.def_36 (not .def_35))) (let ((.def_37 (or .def_28 .def_36))) (let ((.def_38 (and .def_37 .def_33))) (let ((.def_39 (* (- 1) x4))) (let ((.def_40 (* (- 1) x6))) (let ((.def_41 (+ .def_40 .def_39))) (let ((.def_42 (< .def_41 (- 1)))) (let ((.def_43 (and .def_42 .def_11))) (let ((.def_44 (not .def_43))) (let ((.def_45 (* (- 1) x8))) (let ((.def_46 (* 1 x0))) (let ((.def_47 (+ .def_46 .def_45))) (let ((.def_48 (< .def_47 (- 1)))) (let ((.def_49 (not .def_48))) (let ((.def_50 (* 1 x1))) (let ((.def_51 (< .def_50 (- 1)))) (let ((.def_52 (not .def_51))) (let ((.def_53 (or .def_52 .def_49))) (let ((.def_54 (or .def_53 .def_44))) (let ((.def_55 (and .def_54 .def_38))) (let ((.def_56 (not .def_55))) (let ((.def_57 (or .def_56 .def_27))) (let ((.def_58 (not .def_57))) (let ((.def_59 (< .def_50 1))) (let ((.def_60 (* 1 x4))) (let ((.def_61 (< .def_60 1))) (let ((.def_62 (or .def_61 .def_59))) (let ((.def_63 (not A1))) (let ((.def_64 (or A1 .def_63))) (let ((.def_65 (not .def_64))) (let ((.def_66 (or .def_65 .def_62))) (let ((.def_67 (not A7))) (let ((.def_68 (or .def_67 .def_67))) (let ((.def_69 (not .def_68))) (let ((.def_70 (* 1 x3))) (let ((.def_71 (* 1 x9))) (let ((.def_72 (+ .def_71 .def_70))) (let ((.def_73 (< .def_72 (- 1)))) (let ((.def_74 (not .def_73))) (let ((.def_75 (* (- 1) x1))) (let ((.def_76 (+ .def_75 .def_22))) (let ((.def_77 (< .def_76 1))) (let ((.def_78 (not .def_77))) (let ((.def_79 (and .def_78 .def_74))) (let ((.def_80 (not .def_79))) (let ((.def_81 (or .def_80 .def_69))) (let ((.def_82 (and .def_81 .def_66))) (let ((.def_83 (not .def_82))) (let ((.def_84 (* 1 x8))) (let ((.def_85 (* (- 1) x3))) (let ((.def_86 (+ .def_85 .def_84))) (let ((.def_87 (< .def_86 1))) (let ((.def_88 (and .def_87 A6))) (let ((.def_89 (+ .def_17 .def_39))) (let ((.def_90 (< .def_89 (- 1)))) (let ((.def_91 (not .def_90))) (let ((.def_92 (< .def_70 (- 1)))) (let ((.def_93 (not .def_92))) (let ((.def_94 (or .def_93 .def_91))) (let ((.def_95 (and .def_94 .def_88))) (let ((.def_96 (not .def_95))) (let ((.def_97 (+ .def_75 .def_70))) (let ((.def_98 (< .def_97 (- 1)))) (let ((.def_99 (+ .def_0 .def_70))) (let ((.def_100 (< .def_99 (- 1)))) (let ((.def_101 (or .def_100 .def_98))) (let ((.def_102 (not .def_101))) (let ((.def_103 (< .def_86 (- 1)))) (let ((.def_104 (not .def_103))) (let ((.def_105 (and .def_35 .def_104))) (let ((.def_106 (or .def_105 .def_102))) (let ((.def_107 (= .def_106 .def_96))) (let ((.def_108 (and .def_107 .def_83))) (let ((.def_109 (not .def_108))) (let ((.def_110 (or .def_109 .def_58))) (let ((.def_111 (not .def_110))) (let ((.def_112 (not A0))) (let ((.def_113 (+ .def_70 .def_84))) (let ((.def_114 (< .def_113 (- 1)))) (let ((.def_115 (not .def_114))) (let ((.def_116 (or .def_115 .def_112))) (let ((.def_117 (not .def_116))) (let ((.def_118 (+ .def_46 .def_0))) (let ((.def_119 (< .def_118 1))) (let ((.def_120 (not .def_119))) (let ((.def_121 (or .def_5 .def_120))) (let ((.def_122 (and .def_121 .def_117))) (let ((.def_123 (not .def_122))) (let ((.def_124 (< .def_46 (- 1)))) (let ((.def_125 (= .def_124 A9))) (let ((.def_126 (not .def_125))) (let ((.def_127 (+ .def_29 .def_8))) (let ((.def_128 (< .def_127 1))) (let ((.def_129 (= .def_128 .def_52))) (let ((.def_130 (not .def_129))) (let ((.def_131 (or .def_130 .def_126))) (let ((.def_132 (not .def_131))) (let ((.def_133 (or .def_132 .def_123))) (let ((.def_134 (or .def_112 .def_11))) (let ((.def_135 (not .def_134))) (let ((.def_136 (< .def_85 1))) (let ((.def_137 (< .def_1 1))) (let ((.def_138 (and .def_137 .def_136))) (let ((.def_139 (or .def_138 .def_135))) (let ((.def_140 (+ .def_29 .def_50))) (let ((.def_141 (< .def_140 (- 1)))) (let ((.def_142 (< .def_22 (- 1)))) (let ((.def_143 (and .def_142 .def_141))) (let ((.def_144 (or A9 .def_24))) (let ((.def_145 (or .def_144 .def_143))) (let ((.def_146 (not .def_145))) (let ((.def_147 (or .def_146 .def_139))) (let ((.def_148 (or .def_147 .def_133))) (let ((.def_149 (< .def_40 (- 1)))) (let ((.def_150 (not .def_149))) (let ((.def_151 (or A3 .def_150))) (let ((.def_152 (+ .def_22 .def_50))) (let ((.def_153 (< .def_152 (- 1)))) (let ((.def_154 (or .def_153 A9))) (let ((.def_155 (not .def_154))) (let ((.def_156 (or .def_155 .def_151))) (let ((.def_157 (not .def_156))) (let ((.def_158 (+ .def_39 .def_75))) (let ((.def_159 (< .def_158 (- 1)))) (let ((.def_160 (= .def_159 A4))) (let ((.def_161 (not .def_160))) (let ((.def_162 (+ .def_1 .def_29))) (let ((.def_163 (< .def_162 1))) (let ((.def_164 (not .def_163))) (let ((.def_165 (or .def_164 .def_149))) (let ((.def_166 (not .def_165))) (let ((.def_167 (or .def_166 .def_161))) (let ((.def_168 (or .def_167 .def_157))) (let ((.def_169 (not .def_168))) (let ((.def_170 (+ .def_34 .def_70))) (let ((.def_171 (< .def_170 (- 1)))) (let ((.def_172 (or A0 .def_171))) (let ((.def_173 (not A2))) (let ((.def_174 (or .def_173 .def_51))) (let ((.def_175 (not .def_174))) (let ((.def_176 (or .def_175 .def_172))) (let ((.def_177 (< .def_40 1))) (let ((.def_178 (or .def_177 .def_112))) (let ((.def_179 (not .def_178))) (let ((.def_180 (* (- 1) x5))) (let ((.def_181 (< .def_180 (- 1)))) (let ((.def_182 (not .def_181))) (let ((.def_183 (or A3 .def_182))) (let ((.def_184 (and .def_183 .def_179))) (let ((.def_185 (not .def_184))) (let ((.def_186 (and .def_185 .def_176))) (let ((.def_187 (not .def_186))) (let ((.def_188 (or .def_187 .def_169))) (let ((.def_189 (or .def_188 .def_148))) (let ((.def_190 (not .def_189))) (let ((.def_191 (or .def_190 .def_111))) (let ((.def_192 (not .def_191))) (let ((.def_193 (and .def_100 .def_11))) (let ((.def_194 (not .def_193))) (let ((.def_195 (+ .def_22 .def_75))) (let ((.def_196 (< .def_195 1))) (let ((.def_197 (not .def_196))) (let ((.def_198 (or .def_197 A5))) (let ((.def_199 (not .def_198))) (let ((.def_200 (= .def_199 .def_194))) (let ((.def_201 (< .def_8 1))) (let ((.def_202 (not .def_201))) (let ((.def_203 (or .def_202 A8))) (let ((.def_204 (< .def_84 (- 1)))) (let ((.def_205 (not A9))) (let ((.def_206 (or .def_205 .def_204))) (let ((.def_207 (not .def_206))) (let ((.def_208 (or .def_207 .def_203))) (let ((.def_209 (not .def_208))) (let ((.def_210 (or .def_209 .def_200))) (let ((.def_211 (+ .def_70 .def_29))) (let ((.def_212 (< .def_211 1))) (let ((.def_213 (+ .def_0 .def_60))) (let ((.def_214 (< .def_213 (- 1)))) (let ((.def_215 (= .def_214 .def_212))) (let ((.def_216 (not .def_215))) (let ((.def_217 (= A5 .def_197))) (let ((.def_218 (not .def_217))) (let ((.def_219 (and .def_218 .def_216))) (let ((.def_220 (not .def_219))) (let ((.def_221 (not .def_124))) (let ((.def_222 (+ .def_70 .def_75))) (let ((.def_223 (< .def_222 (- 1)))) (let ((.def_224 (or .def_223 .def_221))) (let ((.def_225 (not .def_224))) (let ((.def_226 (+ .def_29 .def_75))) (let ((.def_227 (< .def_226 1))) (let ((.def_228 (not .def_227))) (let ((.def_229 (and .def_228 A3))) (let ((.def_230 (not .def_229))) (let ((.def_231 (or .def_230 .def_225))) (let ((.def_232 (not .def_231))) (let ((.def_233 (or .def_232 .def_220))) (let ((.def_234 (and .def_233 .def_210))) (let ((.def_235 (not .def_234))) (let ((.def_236 (< .def_85 (- 1)))) (let ((.def_237 (and .def_236 .def_28))) (let ((.def_238 (not .def_237))) (let ((.def_239 (not .def_236))) (let ((.def_240 (and A8 .def_239))) (let ((.def_241 (and .def_240 .def_238))) (let ((.def_242 (and .def_5 .def_142))) (let ((.def_243 (not .def_10))) (let ((.def_244 (< .def_34 1))) (let ((.def_245 (and .def_244 .def_243))) (let ((.def_246 (not .def_245))) (let ((.def_247 (and .def_246 .def_242))) (let ((.def_248 (not .def_247))) (let ((.def_249 (and .def_248 .def_241))) (let ((.def_250 (+ .def_46 .def_70))) (let ((.def_251 (< .def_250 1))) (let ((.def_252 (not .def_251))) (let ((.def_253 (or .def_28 .def_252))) (let ((.def_254 (not .def_253))) (let ((.def_255 (+ .def_45 .def_8))) (let ((.def_256 (< .def_255 1))) (let ((.def_257 (< .def_84 1))) (let ((.def_258 (not .def_257))) (let ((.def_259 (and .def_258 .def_256))) (let ((.def_260 (not .def_259))) (let ((.def_261 (and .def_260 .def_254))) (let ((.def_262 (< .def_0 (- 1)))) (let ((.def_263 (or .def_262 .def_18))) (let ((.def_264 (not .def_263))) (let ((.def_265 (not A3))) (let ((.def_266 (and .def_265 .def_67))) (let ((.def_267 (and .def_266 .def_264))) (let ((.def_268 (not .def_267))) (let ((.def_269 (or .def_268 .def_261))) (let ((.def_270 (or .def_269 .def_249))) (let ((.def_271 (= .def_270 .def_235))) (let ((.def_272 (+ .def_180 .def_70))) (let ((.def_273 (< .def_272 1))) (let ((.def_274 (not .def_273))) (let ((.def_275 (and .def_274 A6))) (let ((.def_276 (not .def_275))) (let ((.def_277 (+ .def_45 .def_180))) (let ((.def_278 (< .def_277 1))) (let ((.def_279 (not .def_278))) (let ((.def_280 (< .def_45 (- 1)))) (let ((.def_281 (not .def_280))) (let ((.def_282 (and .def_281 .def_279))) (let ((.def_283 (and .def_282 .def_276))) (let ((.def_284 (or .def_67 A7))) (let ((.def_285 (not .def_284))) (let ((.def_286 (or .def_28 .def_67))) (let ((.def_287 (or .def_286 .def_285))) (let ((.def_288 (not .def_287))) (let ((.def_289 (and .def_288 .def_283))) (let ((.def_290 (+ .def_34 .def_46))) (let ((.def_291 (< .def_290 1))) (let ((.def_292 (not .def_291))) (let ((.def_293 (= .def_292 .def_63))) (let ((.def_294 (and A6 .def_67))) (let ((.def_295 (not .def_294))) (let ((.def_296 (and .def_295 .def_293))) (let ((.def_297 (+ .def_39 .def_85))) (let ((.def_298 (< .def_297 1))) (let ((.def_299 (< .def_0 1))) (let ((.def_300 (or .def_299 .def_298))) (let ((.def_301 (not .def_300))) (let ((.def_302 (and .def_28 .def_28))) (let ((.def_303 (and .def_302 .def_301))) (let ((.def_304 (not .def_303))) (let ((.def_305 (and .def_304 .def_296))) (let ((.def_306 (not .def_305))) (let ((.def_307 (= .def_306 .def_289))) (let ((.def_308 (< .def_71 1))) (let ((.def_309 (or .def_173 .def_308))) (let ((.def_310 (not .def_309))) (let ((.def_311 (or .def_52 A3))) (let ((.def_312 (and .def_311 .def_310))) (let ((.def_313 (not .def_312))) (let ((.def_314 (+ .def_34 .def_0))) (let ((.def_315 (< .def_314 1))) (let ((.def_316 (+ .def_71 .def_60))) (let ((.def_317 (< .def_316 (- 1)))) (let ((.def_318 (or .def_317 .def_315))) (let ((.def_319 (not .def_318))) (let ((.def_320 (+ .def_39 .def_70))) (let ((.def_321 (< .def_320 1))) (let ((.def_322 (and .def_63 .def_321))) (let ((.def_323 (and .def_322 .def_319))) (let ((.def_324 (not .def_323))) (let ((.def_325 (or .def_324 .def_313))) (let ((.def_326 (< .def_39 (- 1)))) (let ((.def_327 (not .def_326))) (let ((.def_328 (and .def_112 .def_327))) (let ((.def_329 (and A4 .def_299))) (let ((.def_330 (or .def_329 .def_328))) (let ((.def_331 (+ .def_180 .def_60))) (let ((.def_332 (< .def_331 1))) (let ((.def_333 (not .def_332))) (let ((.def_334 (and .def_333 .def_61))) (let ((.def_335 (not .def_334))) (let ((.def_336 (not .def_315))) (let ((.def_337 (and .def_236 .def_336))) (let ((.def_338 (not .def_337))) (let ((.def_339 (= .def_338 .def_335))) (let ((.def_340 (not .def_339))) (let ((.def_341 (and .def_340 .def_330))) (let ((.def_342 (not .def_341))) (let ((.def_343 (and .def_342 .def_325))) (let ((.def_344 (not .def_343))) (let ((.def_345 (= .def_344 .def_307))) (let ((.def_346 (or .def_345 .def_271))) (let ((.def_347 (not .def_346))) (let ((.def_348 (or .def_347 .def_192))) (let ((.def_349 (not .def_348))) (let ((.def_350 (<= x9 1))) (let ((.def_351 (<= 0 x9))) (let ((.def_352 (<= x8 1))) (let ((.def_353 (<= 0 x8))) (let ((.def_354 (<= x7 1))) (let ((.def_355 (<= 0 x7))) (let ((.def_356 (<= x6 1))) (let ((.def_357 (<= 0 x6))) (let ((.def_358 (<= x5 1))) (let ((.def_359 (<= 0 x5))) (let ((.def_360 (<= x4 1))) (let ((.def_361 (<= 0 x4))) (let ((.def_362 (<= x3 1))) (let ((.def_363 (<= 0 x3))) (let ((.def_364 (<= x2 1))) (let ((.def_365 (<= 0 x2))) (let ((.def_366 (<= x1 1))) (let ((.def_367 (<= 0 x1))) (let ((.def_368 (<= x0 1))) (let ((.def_369 (<= 0 x0))) (let ((.def_370 (and .def_369 .def_368 .def_367 .def_366 .def_365 .def_364 .def_363 .def_362 .def_361 .def_360 .def_359 .def_358 .def_357 .def_356 .def_355 .def_354 .def_353 .def_352 .def_351 .def_350 .def_349))) .def_370))))))))))))))))))))))))))))))))))))))))))))))))))))))))))))))))))))))))))))))))))))))))))))))))))))))))))))))))))))))))))))))))))))))))))))))))))))))))))))))))))))))))))))))))))))))))))))))))))))))))))))))))))))))))))))))))))))))))))))))))))))))))))))))))))))))))))))))))))))))))))))))))))))))))))))))))))))))))))))))))))))))))))))))))))))))))))))))))))))))))))))))))))))
(check-sat)
